============================[ Problem Statistics ]=============================|                                                                             ||  Number of variables:          4242                                         ||  Number of clauses:           10289                                         ||  Parse time:                   0.67 s                                       ||                                                                             |============================[ Search Statistics ]==============================| Conflicts |          ORIGINAL         |          LEARNT          | Progress ||           |    Vars  Clauses Literals |    Limit  Clauses Lit/Cl |          |===============================================================================|       100 |    1591     6494  1079355 |     2381      100     53 | 62.501 % ||       250 |    1591     6494  1079355 |     2619      250     75 | 62.495 % |===============================================================================restarts              : 3conflicts             : 369            (360 /sec)decisions             : 633            (0.00 % random) (618 /sec)propagations          : 11991          (11710 /sec)conflict literals     : 30236          (94.59 % deleted)CPU time              : 1.024 sSATISFIABLE